246 5
10 10 10 10 10 

0 0 0 0 0 0 4 2 14 26 38 
0 0 0 0 0 0 3 3 7 8 
5 0 0 0 0 3 2 10 4 
2 0 0 0 0 8 2 6 5 
6 0 0 0 0 6 2 12 9 
2 0 0 0 0 10 2 12 9 
5 0 0 0 0 10 1 9 
5 0 0 0 0 6 1 9 
10 0 0 0 0 10 1 11 
7 0 0 0 0 9 1 12 
6 0 0 0 0 7 1 13 
9 0 0 0 0 6 1 13 
0 0 0 0 0 0 1 50 
0 0 0 0 0 0 1 15 
10 0 0 0 2 0 3 18 17 16 
10 0 0 0 7 0 1 20 
1 0 0 0 8 0 1 19 
7 0 0 0 9 0 1 19 
3 0 0 0 9 0 2 22 21 
7 0 0 0 10 0 2 22 21 
1 0 0 0 7 0 2 24 23 
4 0 0 0 9 0 1 23 
8 0 0 0 6 0 1 25 
2 0 0 0 8 0 1 25 
0 0 0 0 0 0 1 50 
0 0 0 0 0 0 3 27 29 30 
3 0 0 0 0 2 1 28 
7 0 0 0 0 8 3 36 32 31 
1 0 0 0 0 9 3 36 33 31 
5 0 0 0 0 8 2 35 32 
2 0 0 0 0 10 2 35 34 
10 0 0 0 0 6 1 33 
5 0 0 0 0 5 1 34 
6 0 0 0 0 10 1 37 
3 0 0 0 0 10 1 37 
6 0 0 0 0 7 1 37 
0 0 0 0 0 0 1 50 
0 0 0 0 0 0 3 39 40 41 
8 0 0 8 0 0 3 45 43 42 
4 0 0 6 0 0 3 45 43 42 
5 0 0 5 0 0 2 45 42 
5 0 0 5 0 0 2 47 44 
6 0 0 10 0 0 1 44 
6 0 0 7 0 0 1 46 
8 0 0 6 0 0 1 46 
4 0 0 8 0 0 1 48 
7 0 0 10 0 0 1 48 
2 0 0 10 0 0 1 49 
0 0 0 0 0 0 1 50 
0 0 0 0 0 0 4 51 63 75 87 
0 0 0 0 0 0 5 52 55 56 60 61 
3 0 0 0 0 3 2 59 53 
7 0 0 0 0 10 1 54 
7 0 0 0 0 7 1 57 
7 0 0 0 0 3 1 57 
7 0 0 0 0 10 1 57 
8 0 0 0 0 6 1 58 
9 0 0 0 0 10 1 62 
4 0 0 0 0 10 1 62 
5 0 0 0 0 10 1 62 
5 0 0 0 0 6 1 62 
0 0 0 0 0 0 1 99 
0 0 0 0 0 0 2 64 66 
7 0 0 0 5 0 2 67 65 
8 0 0 0 7 0 2 70 69 
4 0 0 0 6 0 1 68 
2 0 0 0 2 0 2 73 70 
8 0 0 0 10 0 1 69 
5 0 0 0 10 0 2 73 71 
8 0 0 0 6 0 1 71 
6 0 0 0 10 0 1 72 
5 0 0 0 9 0 1 74 
3 0 0 0 10 0 1 74 
0 0 0 0 0 0 1 99 
0 0 0 0 0 0 3 76 78 85 
10 4 0 0 0 0 1 77 
10 1 0 0 0 0 3 84 81 79 
7 10 0 0 0 0 2 81 80 
3 7 0 0 0 0 1 80 
5 9 0 0 0 0 1 82 
7 8 0 0 0 0 1 83 
8 9 0 0 0 0 1 86 
2 10 0 0 0 0 1 86 
6 10 0 0 0 0 1 86 
7 7 0 0 0 0 1 86 
0 0 0 0 0 0 1 99 
0 0 0 0 0 0 1 88 
4 0 0 7 0 0 3 91 90 89 
6 0 0 7 0 0 2 93 92 
2 0 0 10 0 0 1 92 
9 0 0 7 0 0 1 92 
5 0 0 7 0 0 2 95 94 
2 0 0 9 0 0 2 95 94 
5 0 0 5 0 0 2 97 96 
7 0 0 7 0 0 2 97 96 
3 0 0 6 0 0 1 98 
10 0 0 10 0 0 1 98 
0 0 0 0 0 0 1 99 
0 0 0 0 0 0 4 100 112 124 136 
0 0 0 0 0 0 5 101 102 104 105 110 
4 0 0 0 0 5 2 109 103 
5 0 0 0 0 5 2 109 106 
1 0 0 0 0 10 1 106 
9 0 0 0 0 5 1 106 
5 0 0 0 0 7 2 109 108 
1 0 0 0 0 10 1 107 
6 0 0 0 0 10 1 108 
3 0 0 0 0 7 1 111 
7 0 0 0 0 6 1 111 
4 0 0 0 0 10 1 111 
0 0 0 0 0 0 1 148 
0 0 0 0 0 0 3 113 116 120 
8 0 4 0 0 0 1 114 
1 0 5 0 0 0 2 117 115 
2 0 10 0 0 0 2 119 118 
3 0 5 0 0 0 2 119 117 
4 0 7 0 0 0 2 122 121 
7 0 10 0 0 0 2 122 121 
1 0 9 0 0 0 1 121 
3 0 8 0 0 0 1 121 
9 0 8 0 0 0 1 123 
3 0 9 0 0 0 1 123 
0 0 0 0 0 0 1 148 
0 0 0 0 0 0 5 125 131 132 133 134 
4 0 0 0 3 0 1 126 
5 0 0 0 7 0 1 127 
1 0 0 0 5 0 2 130 128 
4 0 0 0 10 0 1 129 
9 0 0 0 5 0 1 135 
5 0 0 0 10 0 1 135 
3 0 0 0 8 0 1 135 
4 0 0 0 8 0 1 135 
8 0 0 0 9 0 1 135 
4 0 0 0 10 0 1 135 
0 0 0 0 0 0 1 148 
0 0 0 0 0 0 2 137 138 
9 0 1 0 0 0 2 140 139 
2 0 8 0 0 0 1 139 
5 0 8 0 0 0 2 142 141 
1 0 9 0 0 0 2 142 141 
4 0 10 0 0 0 2 144 143 
5 0 8 0 0 0 2 144 143 
5 0 9 0 0 0 2 146 145 
10 0 9 0 0 0 1 145 
1 0 6 0 0 0 1 147 
6 0 7 0 0 0 1 147 
0 0 0 0 0 0 1 148 
0 0 0 0 0 0 4 149 161 173 185 
0 0 0 0 0 0 4 150 152 153 159 
6 0 7 0 0 0 1 151 
3 0 8 0 0 0 2 157 154 
7 0 3 0 0 0 2 157 154 
4 0 6 0 0 0 2 158 157 
7 0 10 0 0 0 1 155 
6 0 10 0 0 0 1 156 
1 0 8 0 0 0 1 160 
4 0 10 0 0 0 1 160 
3 0 6 0 0 0 1 160 
10 0 7 0 0 0 1 160 
0 0 0 0 0 0 1 197 
0 0 0 0 0 0 2 162 163 
3 0 0 0 0 3 3 168 165 164 
1 0 0 0 0 8 3 171 168 167 
6 0 0 0 0 7 2 171 166 
9 0 0 0 0 8 2 171 166 
2 0 0 0 0 10 1 167 
3 0 0 0 0 7 2 170 169 
3 0 0 0 0 10 2 170 169 
1 0 0 0 0 6 1 172 
3 0 0 0 0 6 1 172 
5 0 0 0 0 10 1 172 
0 0 0 0 0 0 1 197 
0 0 0 0 0 0 2 174 175 
1 0 0 0 0 2 1 176 
8 0 0 0 0 9 1 176 
7 0 0 0 0 10 2 179 177 
1 0 0 0 0 7 4 183 182 181 178 
2 0 0 0 0 9 1 180 
5 0 0 0 0 8 1 180 
5 0 0 0 0 7 1 184 
8 0 0 0 0 6 1 184 
10 0 0 0 0 7 1 184 
3 0 0 0 0 10 1 184 
0 0 0 0 0 0 1 197 
0 0 0 0 0 0 5 186 190 193 194 195 
9 0 0 0 4 0 2 192 187 
1 0 0 0 6 0 1 188 
10 0 0 0 4 0 1 189 
3 0 0 0 9 0 1 191 
6 0 0 0 8 0 1 191 
10 0 0 0 10 0 1 196 
6 0 0 0 10 0 1 196 
2 0 0 0 8 0 1 196 
4 0 0 0 9 0 1 196 
8 0 0 0 7 0 1 196 
0 0 0 0 0 0 1 197 
0 0 0 0 0 0 4 198 210 222 234 
0 0 0 0 0 0 3 199 200 208 
5 0 0 0 1 0 2 204 201 
8 0 0 0 8 0 2 207 202 
10 0 0 0 8 0 1 202 
7 0 0 0 7 0 1 203 
2 0 0 0 9 0 1 205 
10 0 0 0 9 0 1 206 
6 0 0 0 9 0 1 209 
7 0 0 0 8 0 1 209 
4 0 0 0 9 0 1 209 
3 0 0 0 7 0 1 209 
0 0 0 0 0 0 1 246 
0 0 0 0 0 0 4 211 218 219 220 
8 0 0 0 7 0 3 217 215 212 
7 0 0 0 4 0 1 213 
9 0 0 0 10 0 1 214 
1 0 0 0 7 0 1 216 
10 0 0 0 3 0 1 216 
3 0 0 0 8 0 1 221 
5 0 0 0 10 0 1 221 
3 0 0 0 8 0 1 221 
1 0 0 0 8 0 1 221 
5 0 0 0 10 0 1 221 
0 0 0 0 0 0 1 246 
0 0 0 0 0 0 4 223 224 225 228 
6 0 0 0 10 0 2 230 226 
1 0 0 0 3 0 2 230 226 
1 0 0 0 6 0 2 230 227 
10 0 0 0 10 0 1 227 
4 0 0 0 8 0 2 232 229 
1 0 0 0 6 0 2 232 229 
3 0 0 0 5 0 1 231 
4 0 0 0 9 0 1 231 
2 0 0 0 8 0 1 233 
6 0 0 0 10 0 1 233 
0 0 0 0 0 0 1 246 
0 0 0 0 0 0 4 235 238 239 242 
6 0 5 0 0 0 1 236 
3 0 5 0 0 0 2 241 237 
10 0 6 0 0 0 2 243 240 
10 0 10 0 0 0 2 244 243 
9 0 9 0 0 0 1 240 
6 0 2 0 0 0 1 244 
8 0 10 0 0 0 1 243 
10 0 10 0 0 0 1 243 
1 0 8 0 0 0 1 245 
5 0 10 0 0 0 1 245 
0 0 0 0 0 0 1 246 
0 0 0 0 0 0 0 
